<?xml version = "1.0" encoding="UTF-8" standalone="yes"?>
<CPLEXSolution version="1.2">
 <header
   problemName="inst_1_cut_n12"
   objectiveValue="69.925571504518871"
   solutionTypeValue="1"
   solutionTypeString="basic"
   solutionStatusValue="1"
   solutionStatusString="optimal"
   solutionMethodString="primal"
   primalFeasible="1"
   dualFeasible="1"
   simplexIterations="0"
   writeLevel="1"/>
 <quality
   epRHS="9.9999999999999995e-07"
   epOpt="9.9999999999999995e-07"
   maxPrimalInfeas="0"
   maxDualInfeas="0"
   maxPrimalResidual="4.2632564145606011e-14"
   maxDualResidual="5.5511151231257827e-16"
   maxX="0.90643274853801159"
   maxPi="2.6007442849548115"
   maxSlack="581.23232323232321"
   maxRedCost="146.62732589048377"
   kappa="391.16140325159301"/>
 <linearConstraints>
  <constraint name="c0" index="0" status="BS" slack="205.87134502923982" dual="-0"/>
  <constraint name="c1" index="1" status="BS" slack="63.311536416799584" dual="-0"/>
  <constraint name="c2" index="2" status="BS" slack="7.7591706539074998" dual="-0"/>
  <constraint name="c3" index="3" status="BS" slack="215.09303561935141" dual="-0"/>
  <constraint name="c4" index="4" status="BS" slack="111.19776714513557" dual="-0"/>
  <constraint name="c5" index="5" status="BS" slack="536.51461988304095" dual="-0"/>
  <constraint name="c6" index="6" status="BS" slack="466.30196703880915" dual="-0"/>
  <constraint name="c7" index="7" status="BS" slack="89.492822966507191" dual="-0"/>
  <constraint name="c8" index="8" status="BS" slack="1.4051036682615745" dual="-0"/>
  <constraint name="c9" index="9" status="BS" slack="581.23232323232321" dual="-0"/>
  <constraint name="c10" index="10" status="BS" slack="383.68793195108987" dual="-0"/>
  <constraint name="c11" index="11" status="BS" slack="524.70175438596493" dual="-0"/>
  <constraint name="c12" index="12" status="BS" slack="422.77990430622009" dual="-0"/>
  <constraint name="c13" index="13" status="BS" slack="0.90643274853801359" dual="-0"/>
  <constraint name="c14" index="14" status="BS" slack="96.46251993620416" dual="-0"/>
  <constraint name="cut_1" index="15" status="BS" slack="0.84529505582136011" dual="-0"/>
  <constraint name="cut_2" index="16" status="LL" slack="0" dual="2.6007442849548115"/>
  <constraint name="cut_3" index="17" status="BS" slack="1.2987772461456757" dual="-0"/>
  <constraint name="cut_4" index="18" status="BS" slack="1.2185007974481579" dual="-0"/>
  <constraint name="cut_5" index="19" status="BS" slack="1.1137692716640188" dual="-0"/>
  <constraint name="cut_6" index="20" status="BS" slack="1.7969165337585835" dual="-0"/>
  <constraint name="cut_7" index="21" status="BS" slack="1.009569377990438" dual="-0"/>
  <constraint name="cut_8" index="22" status="BS" slack="0.72514619883040154" dual="-0"/>
  <constraint name="cut_9" index="23" status="LL" slack="0" dual="0.49069643806485913"/>
  <constraint name="cut_10" index="24" status="BS" slack="1.0792131844763233" dual="-0"/>
  <constraint name="cut_11" index="25" status="BS" slack="0.62360446570974659" dual="-0"/>
  <constraint name="cut_12" index="26" status="BS" slack="1.6097820308347579" dual="-0"/>
 </linearConstraints>
 <variables>
  <variable name="x0" index="0" status="LL" value="0" reducedCost="-132.45560871876663"/>
  <variable name="x1" index="1" status="LL" value="0" reducedCost="-67.25252525252526"/>
  <variable name="x2" index="2" status="BS" value="0.10632642211589578" reducedCost="0"/>
  <variable name="x3" index="3" status="LL" value="0" reducedCost="-17.038809144072317"/>
  <variable name="x4" index="4" status="LL" value="0" reducedCost="-84.153110047846894"/>
  <variable name="x5" index="5" status="BS" value="0.90643274853801159" reducedCost="0"/>
  <variable name="x6" index="6" status="LL" value="0" reducedCost="-146.62732589048377"/>
  <variable name="s0" index="7" status="LL" value="0" reducedCost="0"/>
  <variable name="s1" index="8" status="LL" value="0" reducedCost="0"/>
  <variable name="s2" index="9" status="LL" value="0" reducedCost="0"/>
  <variable name="s3" index="10" status="LL" value="0" reducedCost="0"/>
  <variable name="s4" index="11" status="LL" value="0" reducedCost="0"/>
  <variable name="s5" index="12" status="LL" value="0" reducedCost="0"/>
  <variable name="s6" index="13" status="LL" value="0" reducedCost="0"/>
  <variable name="s7" index="14" status="LL" value="0" reducedCost="0"/>
  <variable name="s8" index="15" status="LL" value="0" reducedCost="0"/>
  <variable name="s9" index="16" status="LL" value="0" reducedCost="0"/>
  <variable name="s10" index="17" status="LL" value="0" reducedCost="0"/>
  <variable name="s11" index="18" status="LL" value="0" reducedCost="0"/>
  <variable name="s12" index="19" status="LL" value="0" reducedCost="0"/>
  <variable name="s13" index="20" status="LL" value="0" reducedCost="0"/>
  <variable name="s14" index="21" status="LL" value="0" reducedCost="0"/>
 </variables>
 <objectiveValues>
  <objective index="0" name="" value="69.925571504518871"/>
 </objectiveValues>
</CPLEXSolution>
